c File: data_files/evolved_graphs/g7385.col
c
c Auto generated graph
c
p edge 100 786
e 1 9
e 1 31
e 1 33
e 1 39
e 1 41
e 1 45
e 1 51
e 1 53
e 1 61
e 1 67
e 1 68
e 1 69
e 1 70
e 1 84
e 1 85
e 1 91
e 1 93
e 2 7
e 2 23
e 2 31
e 2 33
e 2 34
e 2 39
e 2 56
e 2 59
e 2 61
e 2 62
e 2 66
e 2 68
e 2 70
e 2 90
e 2 98
e 3 4
e 3 28
e 3 37
e 3 40
e 3 49
e 3 51
e 3 52
e 3 58
e 3 59
e 3 62
e 3 63
e 3 64
e 3 69
e 3 70
e 3 71
e 3 84
e 3 95
e 3 98
e 4 8
e 4 31
e 4 32
e 4 33
e 4 38
e 4 46
e 4 49
e 4 57
e 4 59
e 4 60
e 4 63
e 4 68
e 4 83
e 4 84
e 4 89
e 4 97
e 5 32
e 5 33
e 5 35
e 5 37
e 5 40
e 5 43
e 5 53
e 5 64
e 5 65
e 5 66
e 5 74
e 5 83
e 5 90
e 5 92
e 5 94
e 5 96
e 6 9
e 6 29
e 6 36
e 6 46
e 6 54
e 6 65
e 6 69
e 6 76
e 6 89
e 6 90
e 6 91
e 6 98
e 6 99
e 7 12
e 7 27
e 7 32
e 7 33
e 7 35
e 7 36
e 7 38
e 7 53
e 7 54
e 7 59
e 7 62
e 7 96
e 7 99
e 8 27
e 8 30
e 8 33
e 8 42
e 8 44
e 8 45
e 8 47
e 8 56
e 8 60
e 8 67
e 8 69
e 8 72
e 8 99
e 8 100
e 9 11
e 9 32
e 9 37
e 9 49
e 9 53
e 9 60
e 9 61
e 9 71
e 9 82
e 9 93
e 9 96
e 9 97
e 9 99
e 11 26
e 11 28
e 11 31
e 11 32
e 11 36
e 11 39
e 11 40
e 11 44
e 11 45
e 11 60
e 11 77
e 11 81
e 11 84
e 11 85
e 11 90
e 11 100
e 12 27
e 12 30
e 12 32
e 12 35
e 12 36
e 12 56
e 12 68
e 12 73
e 12 74
e 12 75
e 12 77
e 12 80
e 12 87
e 12 92
e 12 93
e 12 95
e 12 97
e 12 98
e 13 16
e 13 20
e 13 25
e 13 27
e 13 28
e 13 29
e 13 32
e 13 35
e 13 48
e 13 52
e 13 61
e 13 63
e 13 78
e 13 94
e 14 15
e 14 28
e 14 30
e 14 32
e 14 34
e 14 37
e 14 38
e 14 39
e 14 41
e 14 42
e 14 44
e 14 46
e 14 48
e 14 49
e 14 54
e 14 73
e 14 74
e 14 76
e 14 89
e 14 91
e 14 100
e 15 25
e 15 26
e 15 29
e 15 32
e 15 34
e 15 38
e 15 40
e 15 41
e 15 43
e 15 44
e 15 45
e 15 48
e 15 51
e 15 66
e 15 75
e 15 79
e 15 86
e 15 93
e 15 95
e 15 98
e 15 99
e 15 100
e 16 17
e 16 26
e 16 28
e 16 29
e 16 30
e 16 37
e 16 39
e 16 40
e 16 41
e 16 49
e 16 53
e 16 72
e 16 79
e 16 83
e 16 94
e 17 29
e 17 34
e 17 37
e 17 39
e 17 40
e 17 45
e 17 46
e 17 47
e 17 48
e 17 51
e 17 53
e 17 58
e 17 70
e 17 72
e 17 74
e 17 88
e 17 96
e 17 97
e 18 26
e 18 27
e 18 38
e 18 40
e 18 42
e 18 43
e 18 45
e 18 48
e 18 49
e 18 52
e 18 55
e 18 58
e 18 61
e 18 68
e 18 74
e 18 76
e 18 77
e 18 82
e 18 85
e 18 97
e 19 35
e 19 39
e 19 43
e 19 44
e 19 46
e 19 52
e 19 53
e 19 55
e 19 56
e 19 71
e 19 77
e 19 78
e 19 82
e 19 84
e 19 86
e 19 95
e 19 96
e 20 29
e 20 31
e 20 33
e 20 34
e 20 35
e 20 38
e 20 45
e 20 49
e 20 50
e 20 58
e 20 66
e 20 71
e 20 76
e 20 77
e 20 80
e 20 81
e 20 94
e 21 25
e 21 31
e 21 37
e 21 45
e 21 46
e 21 50
e 21 55
e 21 59
e 21 63
e 21 67
e 21 78
e 21 81
e 21 82
e 21 86
e 21 87
e 21 88
e 21 93
e 21 94
e 22 25
e 22 31
e 22 37
e 22 40
e 22 43
e 22 47
e 22 51
e 22 55
e 22 61
e 22 72
e 22 77
e 22 79
e 22 80
e 22 81
e 22 87
e 22 89
e 23 27
e 23 32
e 23 39
e 23 45
e 23 47
e 23 49
e 23 50
e 23 55
e 23 66
e 23 78
e 23 82
e 23 86
e 23 91
e 23 96
e 23 98
e 24 32
e 24 42
e 24 47
e 24 50
e 24 52
e 24 61
e 24 65
e 24 77
e 24 78
e 24 79
e 24 83
e 24 92
e 24 97
e 25 29
e 25 37
e 25 38
e 25 42
e 25 79
e 25 82
e 25 84
e 25 87
e 25 97
e 25 98
e 26 32
e 26 33
e 26 37
e 26 44
e 26 45
e 26 52
e 26 62
e 26 76
e 26 80
e 26 83
e 26 85
e 26 90
e 26 98
e 27 43
e 27 46
e 27 47
e 27 48
e 27 64
e 27 67
e 27 69
e 27 76
e 27 83
e 27 84
e 27 88
e 28 31
e 28 34
e 28 36
e 28 51
e 28 58
e 28 63
e 28 67
e 28 75
e 28 76
e 28 83
e 28 98
e 28 99
e 28 100
e 29 35
e 29 66
e 29 69
e 29 93
e 29 94
e 29 99
e 30 32
e 30 34
e 30 79
e 30 93
e 30 99
e 31 32
e 31 46
e 31 67
e 31 68
e 31 87
e 32 52
e 32 53
e 32 54
e 32 60
e 32 64
e 32 66
e 32 90
e 32 94
e 33 37
e 33 45
e 33 50
e 33 51
e 33 52
e 33 57
e 33 59
e 34 48
e 34 51
e 34 53
e 34 55
e 34 57
e 34 60
e 34 76
e 34 84
e 35 38
e 35 44
e 35 51
e 35 55
e 35 59
e 35 60
e 35 83
e 36 42
e 36 43
e 36 45
e 36 52
e 36 55
e 36 60
e 36 63
e 36 70
e 36 98
e 36 99
e 37 46
e 37 50
e 37 53
e 37 55
e 37 57
e 37 67
e 37 70
e 37 72
e 37 95
e 37 98
e 38 44
e 38 45
e 38 46
e 38 49
e 38 55
e 38 66
e 38 70
e 38 72
e 38 83
e 38 84
e 39 44
e 39 54
e 39 55
e 39 66
e 39 70
e 39 71
e 39 91
e 40 48
e 40 49
e 40 55
e 40 59
e 40 61
e 40 65
e 40 66
e 41 43
e 41 48
e 41 50
e 41 56
e 41 59
e 41 60
e 41 66
e 41 75
e 41 87
e 42 43
e 42 53
e 42 54
e 42 59
e 42 68
e 42 70
e 42 74
e 42 77
e 42 82
e 42 92
e 43 51
e 43 64
e 43 76
e 43 77
e 43 78
e 43 90
e 44 66
e 44 70
e 44 80
e 45 55
e 45 71
e 45 73
e 45 74
e 45 78
e 46 61
e 46 70
e 46 73
e 46 92
e 46 99
e 47 50
e 47 67
e 47 70
e 47 73
e 47 75
e 47 77
e 47 90
e 47 95
e 48 55
e 48 60
e 48 62
e 48 67
e 48 75
e 48 77
e 49 50
e 49 69
e 49 70
e 49 77
e 49 78
e 49 96
e 49 100
e 50 53
e 50 68
e 50 74
e 50 75
e 50 78
e 50 81
e 50 99
e 51 69
e 51 74
e 51 78
e 51 89
e 52 64
e 52 68
e 52 78
e 52 84
e 52 87
e 52 96
e 53 62
e 53 66
e 53 68
e 53 71
e 54 71
e 54 77
e 54 83
e 54 85
e 54 86
e 54 88
e 54 98
e 55 60
e 55 62
e 55 65
e 55 85
e 55 86
e 55 95
e 55 99
e 56 61
e 56 62
e 56 69
e 56 86
e 56 93
e 56 94
e 56 95
e 56 97
e 56 98
e 56 100
e 57 63
e 57 68
e 57 72
e 57 73
e 57 75
e 57 81
e 57 82
e 57 84
e 57 89
e 57 93
e 58 61
e 58 63
e 58 66
e 58 80
e 58 84
e 58 85
e 58 86
e 58 99
e 59 73
e 59 82
e 59 85
e 59 86
e 60 62
e 60 70
e 60 73
e 60 79
e 60 88
e 61 72
e 61 73
e 61 79
e 62 64
e 62 69
e 62 75
e 62 79
e 62 85
e 62 89
e 62 90
e 62 91
e 62 92
e 63 66
e 63 67
e 63 71
e 63 73
e 63 79
e 63 89
e 63 90
e 63 93
e 63 97
e 64 68
e 64 70
e 64 71
e 64 72
e 64 81
e 64 92
e 64 94
e 64 100
e 65 75
e 65 84
e 65 88
e 65 89
e 65 90
e 65 91
e 65 95
e 66 73
e 66 87
e 66 88
e 66 92
e 66 93
e 66 94
e 67 70
e 67 77
e 67 91
e 67 96
e 68 74
e 68 81
e 68 83
e 68 91
e 68 95
e 69 70
e 69 89
e 69 93
e 69 94
e 70 80
e 70 93
e 71 75
e 71 81
e 71 87
e 71 95
e 72 75
e 72 81
e 72 82
e 72 85
e 72 88
e 72 94
e 73 76
e 73 79
e 73 85
e 73 87
e 73 91
e 73 92
e 73 95
e 73 100
e 74 85
e 74 87
e 74 90
e 74 96
e 75 80
e 75 82
e 75 87
e 75 89
e 75 95
e 76 83
e 76 87
e 76 97
e 77 81
e 77 84
e 77 92
e 77 98
e 78 88
e 78 89
e 78 92
e 78 93
e 78 100
e 79 80
e 79 83
e 79 86
e 79 87
e 79 90
e 79 91
e 79 96
e 80 86
e 80 88
e 80 89
e 80 94
e 80 95
e 81 84
e 81 91
e 81 94
e 82 85
e 82 91
e 82 94
e 82 96
e 83 92
e 84 85
e 84 91
e 84 92
e 85 90
e 85 97
e 85 100
e 86 89
e 86 94
e 86 95
e 86 96
e 86 99
e 86 100
e 87 95
e 87 96
e 87 100
e 88 93
e 88 95
e 88 100
e 89 92
e 89 94
e 91 97
e 94 96
e 94 100
e 95 100
e 96 100
e 97 100
e 99 100
